Set parameter Username
Academic license - for non-commercial use only - expires 2022-06-20
Gurobi Optimizer version 9.5.1 build v9.5.1rc2 (mac64[x86])
Thread count: 2 physical cores, 4 logical processors, using up to 4 threads
Optimize a model with 3025 rows, 2916 columns and 11610 nonzeros
Model fingerprint: 0xc7980385
Variable types: 0 continuous, 2916 integer (2916 binary)
Coefficient statistics:
  Matrix range     [1e+00, 1e+03]
  Objective range  [1e+00, 9e+00]
  Bounds range     [1e+00, 1e+00]
  RHS range        [1e+00, 8e+00]
Presolve removed 54 rows and 0 columns
Presolve time: 0.05s
Presolved: 2971 rows, 2916 columns, 11610 nonzeros
Variable types: 0 continuous, 2916 integer (2916 binary)
Found heuristic solution: objective 170.3332029

Root relaxation: objective 5.370651e+01, 706 iterations, 0.03 seconds (0.03 work units)

    Nodes    |    Current Node    |     Objective Bounds      |     Work
 Expl Unexpl |  Obj  Depth IntInf | Incumbent    BestBd   Gap | It/Node Time

     0     0   53.70651    0  113  170.33320   53.70651  68.5%     -    0s
H    0     0                     114.1684440   53.70651  53.0%     -    0s
     0     0   54.27764    0  175  114.16844   54.27764  52.5%     -    0s
H    0     0                      60.9793298   54.27764  11.0%     -    1s
     0     0   54.28484    0  184   60.97933   54.28484  11.0%     -    1s
     0     0   54.46532    0  188   60.97933   54.46532  10.7%     -    1s
     0     0   54.68462    0  169   60.97933   54.68462  10.3%     -    1s
     0     0   54.74768    0  163   60.97933   54.74768  10.2%     -    1s
     0     0   54.75569    0  157   60.97933   54.75569  10.2%     -    1s
     0     0   54.78918    0  165   60.97933   54.78918  10.2%     -    1s
     0     0   54.83026    0  167   60.97933   54.83026  10.1%     -    1s
     0     0   54.83026    0  169   60.97933   54.83026  10.1%     -    1s
     0     0   54.86606    0  181   60.97933   54.86606  10.0%     -    1s
     0     0   54.89037    0  170   60.97933   54.89037  10.0%     -    1s
     0     0   54.89374    0  172   60.97933   54.89374  10.0%     -    1s
     0     0   54.89374    0  172   60.97933   54.89374  10.0%     -    1s
     0     2   54.89374    0  172   60.97933   54.89374  10.0%     -    2s
H  292   287                      60.7564072   55.10400  9.30%  35.6    3s
H  728   408                      58.1126984   55.28689  4.86%  31.4    4s
   729   398   57.30320   22  172   58.11270   55.28689  4.86%  31.3    5s
H  739   384                      57.3421936   55.28689  3.58%  30.9    6s
   770   410   55.60687   29  103   57.34219   55.30859  3.55%  35.5   10s
H 1060   447                      57.1061257   55.43501  2.93%  40.4   11s
H 1930   546                      57.0416306   55.73454  2.29%  41.9   13s
  2138   637   56.67436   36   90   57.04163   55.78769  2.20%  42.4   15s
  3940  1059   56.69912   38  100   57.04163   56.11519  1.62%  46.7   20s
  5651  1034     cutoff   40        57.04163   56.35425  1.21%  47.6   25s

Cutting planes:
  Gomory: 2
  MIR: 36
  StrongCG: 33
  Flow cover: 19
  GUB cover: 8
  Zero half: 1

Explored 8571 nodes (398588 simplex iterations) in 29.77 seconds (20.19 work units)
Thread count was 4 (of 4 available processors)

Solution count 8: 57.0416 57.1061 57.3422 ... 170.333

Optimal solution found (tolerance 1.00e-04)
Best objective 5.704163056034e+01, best bound 5.704163056034e+01, gap 0.0000%
Gurobi Optimizer version 9.5.1 build v9.5.1rc2 (mac64[x86])
Thread count: 2 physical cores, 4 logical processors, using up to 4 threads
Optimize a model with 8803 rows, 12960 columns and 47094 nonzeros
Model fingerprint: 0xb3d45558
Variable types: 10044 continuous, 2916 integer (2916 binary)
Coefficient statistics:
  Matrix range     [1e+00, 1e+03]
  Objective range  [1e+00, 9e+00]
  Bounds range     [1e+00, 1e+00]
  RHS range        [1e+00, 8e+00]

MIP start from previous solve did not produce a new incumbent solution

Presolve removed 108 rows and 186 columns
Presolve time: 0.32s
Presolved: 8695 rows, 12774 columns, 46714 nonzeros
Variable types: 9858 continuous, 2916 integer (2916 binary)

Root relaxation: objective 5.370651e+01, 889 iterations, 0.10 seconds (0.05 work units)

    Nodes    |    Current Node    |     Objective Bounds      |     Work
 Expl Unexpl |  Obj  Depth IntInf | Incumbent    BestBd   Gap | It/Node Time

     0     0   53.70651    0  113          -   53.70651      -     -    0s
     0     0   54.27764    0  175          -   54.27764      -     -    1s
     0     0   54.28484    0  184          -   54.28484      -     -    1s
     0     0   54.47625    0  192          -   54.47625      -     -    1s
     0     0   54.68782    0  167          -   54.68782      -     -    2s
     0     0   54.68965    0  166          -   54.68965      -     -    2s
     0     0   54.75182    0  160          -   54.75182      -     -    2s
     0     0   54.78868    0  170          -   54.78868      -     -    2s
     0     0   54.78868    0  170          -   54.78868      -     -    2s
     0     0   54.79024    0  172          -   54.79024      -     -    2s
     0     0   54.79084    0  172          -   54.79084      -     -    3s
     0     0   54.79162    0  172          -   54.79162      -     -    3s
     0     0   54.79690    0  165          -   54.79690      -     -    3s
     0     0   54.79920    0  164          -   54.79920      -     -    3s
     0     0   54.81275    0  169          -   54.81275      -     -    3s
     0     0   54.81376    0  179          -   54.81376      -     -    3s
     0     0   54.81550    0  185          -   54.81550      -     -    3s
     0     0   54.81557    0  185          -   54.81557      -     -    3s
     0     0   54.81557    0  185          -   54.81557      -     -    3s
     0     0   54.81557    0  185          -   54.81557      -     -    3s
     0     2   54.88139    0  185          -   54.88139      -     -    5s
   742   505   60.55005   31  185          -   55.18425      -  68.1   10s
   768   522   65.64306   41  197          -   55.18425      -  65.8   15s
   772   528   55.18425   13  208          -   55.18425      -   3.3   21s
   944   600   56.21610   21   29          -   55.29248      -  15.5   25s
  1497   928   59.56446   41   36          -   55.37265      -  35.5   30s
H 2089   683                      60.1640481   55.42408  7.88%  41.0   34s
H 2115   418                      58.3356209   55.43788  4.97%  41.0   34s
  2132   430   55.64380   19   59   58.33562   55.43858  4.97%  41.1   35s
H 2143   277                      57.2776985   55.43858  3.21%  41.2   35s
  2697   504   56.80576   27   27   57.27770   55.58160  2.96%  44.1   40s
  3160   680   56.89175   29  101   57.27770   55.69827  2.76%  45.1   45s
  3731   874   56.77286   31   95   57.27770   55.81510  2.55%  46.9   50s
  4429  1032     cutoff   33        57.27770   55.92294  2.37%  48.7   55s
  5196  1157     cutoff   24        57.27770   56.00818  2.22%  49.8   60s
